NAME : XML100_3316_13
DIMENSION : 101
NB_CLUSTERS : 3
CLUSTERING_ALG : KMedoids
CLUSTERING_PARAMS : k(2)
CLUSTERS
1 0
2 3 4 6 7 8 9 10 11 12 13 14 15 16 18 19 21 22 23 24 25 26 27 28 29 30 32 34 35 39 40 42 44 45 46 47 48 49 50 52 56 57 58 59 60 62 63 64 65 67 71 73 75 76 80 81 83 89 91 93 95 96 98 100
3 1 2 5 17 20 31 33 36 37 38 41 43 51 53 54 55 61 66 68 69 70 72 74 77 78 79 82 84 85 86 87 88 90 92 94 97 99
EOF